30
2 1 2
5 0 1
5 3 1
5 4 2
6 0 1
6 1 1
6 3 2
6 4 2
7 0 1
7 2 1
7 3 1
7 5 1
7 6 3
8 1 2
8 3 1
8 4 3
8 6 3
8 7 3
9 0 2
9 1 2
9 2 1
9 3 3
9 5 3
9 8 3
10 2 3
10 4 2
10 7 3
10 8 3
10 9 1
11 0 1
11 2 3
11 6 1
11 8 3
11 10 1
12 1 1
12 4 1
12 5 3
12 7 3
12 8 1
12 9 2
12 10 1
13 4 1
13 5 1
13 6 1
13 10 2
14 0 3
14 1 1
14 3 3
14 4 1
14 5 3
14 6 1
14 7 3
14 8 3
14 9 2
14 10 1
14 12 1
14 13 3
15 0 3
15 2 2
15 3 1
15 4 1
15 7 3
15 8 2
15 10 2
15 11 1
15 12 2
15 13 2
15 14 1
16 0 3
16 1 1
16 3 3
16 6 1
16 8 1
16 9 2
16 11 2
16 13 3
16 14 1
16 15 2
17 1 1
17 6 3
17 7 1
17 8 3
17 9 1
17 13 2
18 0 2
18 7 3
18 8 2
18 11 3
18 14 1
18 15 2
19 0 1
19 1 3
19 2 2
19 5 2
19 7 2
19 8 1
19 10 2
19 11 2
19 13 2
19 14 3
19 17 3
19 18 3
20 0 1
20 1 3
20 2 1
20 7 3
20 8 2
20 9 2
20 10 1
20 11 1
20 12 2
20 13 2
20 15 1
20 16 1
20 18 2
21 0 3
21 1 3
21 3 3
21 5 2
21 13 3
21 15 3
21 17 1
22 1 1
22 4 3
22 6 3
22 7 2
22 8 3
22 16 1
22 18 1
22 20 2
22 21 2
23 0 3
23 1 1
23 4 1
23 5 3
23 6 1
23 7 2
23 10 2
23 14 3
23 17 1
23 19 3
23 20 2
23 21 3
23 22 2
24 0 3
24 2 2
24 3 3
24 5 1
24 9 3
24 15 1
24 17 2
24 18 1
24 19 3
24 20 1
25 3 3
25 4 1
25 5 3
25 10 2
25 11 3
25 12 1
25 13 1
25 14 2
25 16 1
25 17 3
25 20 2
25 21 3
25 22 1
26 0 2
26 1 2
26 2 2
26 4 1
26 6 2
26 7 1
26 8 1
26 11 1
26 13 1
26 15 2
26 16 2
26 19 3
26 20 1
26 23 2
26 25 1
27 1 2
27 3 1
27 4 1
27 6 1
27 10 3
27 14 3
27 17 1
27 19 1
27 22 2
27 23 1
28 0 1
28 1 3
28 4 1
28 5 3
28 6 3
28 16 2
28 17 3
28 20 1
28 21 3
28 24 2
28 25 2
28 26 3
29 3 3
29 4 2
29 7 2
29 11 1
29 14 3
29 16 1
29 17 3
29 19 1
29 21 2
29 22 2
29 24 2
29 25 3
29 27 3
29 28 2
